16 32
1 2 1
1 5 5
2 3 1
2 6 2
3 4 2
3 7 1
4 8 2
5 6 5
5 9 2
6 7 5
6 10 5
7 8 1
7 11 5
8 12 5
9 10 4
9 13 3
10 11 3
10 14 2
11 12 3
11 15 4
12 16 1
13 14 2
14 15 3
15 16 5
1 13 2
2 14 5
3 15 4
4 16 4
1 4 5
5 8 2
9 12 4
13 16 4
